; benchmark generated from python API
(set-info :status unknown)
(declare-fun L_1 () Real)
(declare-fun S_3 () Real)
(declare-fun A_3 () Real)
(declare-fun S_4 () Real)
(declare-fun L_4 () Real)
(declare-fun A_4 () Real)
(declare-fun S_1 () Real)
(declare-fun S_2 () Real)
(declare-fun A_2 () Real)
(declare-fun A_1 () Real)
(declare-fun S_0 () Real)
(declare-fun L_0 () Real)
(declare-fun A_0 () Real)
(assert
 (let ((?x1345 (* 2.0 A_2)))
 (let ((?x1360 (* (- 4.0) A_1)))
 (let ((?x2596 (* 4.0 L_1)))
 (let ((?x2897 (* (- 2.0) L_4)))
 (let ((?x1734 (* 2.0 A_4)))
 (let ((?x1324 (* (- 3.0) L_0)))
 (let ((?x1625 (* (- 1.0) S_3)))
 (let ((?x1809 (* 3.0 A_0)))
 (let ((?x3920 (* (- 2.0) A_3)))
 (let (($x58355 (<= (+ ?x3920 ?x1809 ?x1625 ?x1324 ?x1734 ?x2897 ?x2596 ?x1360 ?x1345) 0.0)))
 (let ((?x901 (* (- 1.0) A_0)))
 (let ((?x747 (* (- 1.0) L_4)))
 (let ((?x1969 (* (/ 1.0 2.0) A_1)))
 (let ((?x1968 (* (/ 1.0 2.0) L_1)))
 (let (($x43278 (<= (+ ?x1968 ?x1969 (* (- (/ 3.0 2.0)) S_4) S_0 ?x747 ?x901 A_4) 0.0)))
 (let ((?x960 (* (- 1.0) A_2)))
 (let ((?x749 (* (- 1.0) L_0)))
 (let ((?x2480 (* (- 3.0) S_4)))
 (let (($x21131 (<= (+ A_3 ?x2480 ?x749 S_0 ?x1734 ?x2897 L_1 ?x960) 0.0)))
 (let (($x7806 (<= (+ A_3 (* (- 2.0) S_4) (* (- 1.0) L_1) A_1 A_4 ?x747 ?x960) 0.0)))
 (let (($x4495 (<= (+ A_3 (* (- 1.0) S_4) (* (- 1.0) L_1)) 0.0)))
 (let (($x3081 (<= (+ ?x747 A_2 ?x1625) 0.0)))
 (let ((?x1231 (* 3.0 L_1)))
 (let ((?x1238 (* (- 3.0) L_4)))
 (let ((?x986 (* (- 2.0) A_0)))
 (let ((?x1301 (* (- 4.0) S_4)))
 (let (($x751 (<= (+ ?x1301 ?x986 ?x749 (* 3.0 S_0) (* 3.0 A_4) ?x1238 ?x1231) 0.0)))
 (let ((?x758 (* (- 1.0) L_1)))
 (let (($x690 (= ?x758 ?x749)))
 (let (($x37431 (<= (+ ?x758 (* 2.0 A_1) (* (- 3.0) S_3) S_0 A_4 ?x747 ?x901) 0.0)))
 (let ((?x2084 (* (- 2.0) A_1)))
 (let ((?x1798 (* 2.0 L_1)))
 (let ((?x2895 (* (- 3.0) S_3)))
 (let (($x13082 (<= (+ ?x1809 ?x1324 ?x2895 ?x1734 ?x2897 ?x1798 ?x2084) 0.0)))
 (let (($x2679 (<= (+ (* (- 1.0) A_3) A_2) 0.0)))
 (let (($x1315 (<= (+ ?x749 (* (- 2.0) S_3) S_0 A_4 ?x747 L_1) 0.0)))
 (let (($x124368 (<= (+ ?x758 L_4) 0.0)))
 (let ((?x21961 (* (/ 1.0 3.0) L_0)))
 (let ((?x21960 (* (- (/ 1.0 3.0)) A_0)))
 (let (($x21964 (<= (+ (* (- (/ 2.0 3.0)) A_3) ?x21960 ?x21961 S_2 (* (/ 2.0 3.0) L_4)) 0.0)))
 (let ((?x1363 (* (- 2.0) A_2)))
 (let ((?x2036 (* 2.0 A_1)))
 (let ((?x1877 (* (- 2.0) L_1)))
 (let ((?x2889 (* 2.0 L_4)))
 (let (($x21860 (<= (+ ?x901 L_0 S_2 ?x2889 ?x1877 ?x2036 ?x1363) 0.0)))
 (let ((?x4163 (* (- (/ 3.0 2.0)) A_2)))
 (let ((?x7731 (* 3.0 A_1)))
 (let ((?x1321 (* (- 3.0) L_1)))
 (let ((?x21545 (* (/ 3.0 2.0) L_4)))
 (let ((?x21544 (* (- (/ 3.0 2.0)) A_4)))
 (let ((?x21514 (* (/ 3.0 4.0) S_2)))
 (let ((?x21526 (* (/ 3.0 2.0) A_3)))
 (let ((?x21578 (+ ?x21526 (* (- (/ 9.0 4.0)) A_0) (* (/ 9.0 4.0) L_0) ?x21514 ?x21544 ?x21545 ?x1321 ?x7731 ?x4163)))
 (let (($x21579 (<= ?x21578 0.0)))
 (let ((?x2865 (* (- 2.0) A_4)))
 (let ((?x3365 (* 3.0 S_2)))
 (let ((?x1334 (* 3.0 L_0)))
 (let ((?x3614 (* (- 3.0) A_0)))
 (let (($x13129 (<= (+ ?x3614 ?x1334 ?x3365 ?x2865 ?x2889 ?x1877 ?x2036) 0.0)))
 (let (($x4825 (<= (+ A_3 ?x901 L_0 (* (- 1.0) A_4) L_4 ?x1877 A_1) 0.0)))
 (let ((?x798 (* (- 1.0) A_4)))
 (let ((?x1331 (* (- 1.0) S_1)))
 (let ((?x1598 (* (/ 3.0 2.0) S_3)))
 (let ((?x1999 (* (- (/ 1.0 2.0)) A_1)))
 (let ((?x1982 (* (- (/ 1.0 2.0)) L_1)))
 (let (($x37509 (<= (+ ?x1982 ?x1999 ?x1598 ?x1331 ?x798 L_4 A_0) 0.0)))
 (let (($x33923 (<= (+ (* (/ 2.0 3.0) A_0) ?x21961 (* (/ 4.0 3.0) S_3) ?x1331 ?x798 L_4 ?x758) 0.0)))
 (let ((?x33006 (* (/ 2.0 3.0) S_3)))
 (let ((?x21806 (* (- (/ 1.0 3.0)) L_0)))
 (let ((?x20168 (* (/ 4.0 3.0) A_0)))
 (let (($x30463 (<= (+ ?x20168 ?x21806 ?x33006 ?x1331 L_4 ?x758 ?x960) 0.0)))
 (let (($x8204 (<= (+ ?x758 ?x1331 A_0) 0.0)))
 (let (($x7042 (<= (+ L_4 S_3 ?x758 ?x1331 A_0 (* (- 1.0) A_3)) 0.0)))
 (let ((?x769 (* (- 1.0) A_3)))
 (let ((?x8321 (* (/ 3.0 2.0) S_2)))
 (let ((?x1600 (* (/ 1.0 2.0) L_0)))
 (let ((?x1588 (* (/ 1.0 2.0) A_0)))
 (let (($x46400 (<= (+ ?x1588 ?x1600 ?x8321 ?x1331 L_4 ?x758 ?x769) 0.0)))
 (let ((?x3265 (* (- 4.0) L_1)))
 (let ((?x1816 (* (- 2.0) S_1)))
 (let ((?x3907 (* 2.0 A_3)))
 (let (($x13786 (<= (+ L_0 (* 2.0 S_2) ?x1331 ?x798 L_4 ?x758) 0.0)))
 (let (($x7052 (<= (+ ?x960 S_2 ?x1331 A_0) 0.0)))
 (let (($x893581 (or $x7052 $x13786 (<= (+ ?x3907 A_0 L_0 S_2 ?x1816 ?x2865 ?x2889 ?x3265) 0.0) $x46400 $x124368)))
 (let (($x35695 (<= (+ (* (- (/ 3.0 2.0)) L_1) (* (/ 3.0 2.0) A_1) (* (- (/ 1.0 2.0)) S_4) L_0 ?x901) 0.0)))
 (let (($x3905 (<= (+ A_2 (* (- 2.0) S_4) ?x901 S_0 A_4 ?x747) 0.0)))
 (let (($x3599 (<= (+ (* (- 1.0) S_4) A_0 ?x749 A_4 ?x747 L_1 (* (- 1.0) A_1)) 0.0)))
 (let (($x1633 (<= (+ ?x749 L_1) 0.0)))
 (let (($x106551 (<= (+ S_4 ?x901 L_0 ?x2889 ?x1877 ?x2036 ?x3920) 0.0)))
 (let (($x22235 (<= (+ (* (/ 1.0 2.0) S_4) (* (- (/ 1.0 2.0)) A_0) ?x1600 ?x2036 ?x1363) 0.0)))
 (let ((?x2018 (* (- (/ 3.0 2.0)) L_1)))
 (let ((?x5333 (* (/ 1.0 2.0) S_4)))
 (let ((?x4607 (* (/ 1.0 2.0) A_2)))
 (let (($x13634 (<= (+ ?x4607 ?x5333 ?x2018 ?x1331 L_4 A_0 ?x769) 0.0)))
 (let ((?x2472 (* 3.0 S_4)))
 (let ((?x13254 (+ ?x2472 ?x3614 ?x1334 (* (- 4.0) A_4) (* 4.0 L_4) ?x3265 (* 4.0 A_1))))
 (let (($x13255 (<= ?x13254 0.0)))
 (let (($x3503 (<= (+ A_2 S_4 ?x986 (* 2.0 L_0) ?x2865 ?x2889 ?x1321 ?x2036) 0.0)))
 (let (($x4819 (<= (+ A_3 ?x901 L_0 ?x798 ?x758 A_1) 0.0)))
 (let (($x3202 (<= (+ L_4 ?x758 A_1 S_2 L_0 ?x901 ?x769) 0.0)))
 (let ((?x29264 (+ (* (/ 9.0 5.0) A_3) (* (- (/ 9.0 5.0)) A_0) (* (/ 9.0 5.0) L_0) (* (- (/ 6.0 5.0)) A_4) (* (/ 6.0 5.0) L_4) ?x1321 ?x7731 (* (- (/ 9.0 5.0)) A_2))))
 (let (($x32959 (<= ?x29264 0.0)))
 (let (($x22243 (<= (+ ?x5333 (* (- (/ 1.0 2.0)) A_0) ?x1600 ?x2889 ?x1877 ?x2036 ?x1363) 0.0)))
 (let (($x7145 (<= (+ A_3 ?x758 (* (- 1.0) A_1) ?x798 L_4 A_2) 0.0)))
 (let (($x3517 (<= (+ A_2 L_4 ?x901 L_0 ?x1877 A_1 ?x769) 0.0)))
 (let ((?x2919 (* (- 3.0) A_3)))
 (let ((?x2247 (* 3.0 A_2)))
 (let ((?x44224 (* (/ 3.0 4.0) S_4)))
 (let (($x44265 (<= (+ ?x44224 (* (- (/ 3.0 4.0)) A_0) (* (/ 3.0 4.0) L_0) ?x2247 ?x2919) 0.0)))
 (let (($x26498 (<= (+ A_3 S_4 ?x986 (* 2.0 L_0) ?x2865 ?x2889 ?x1321 ?x7731 ?x960) 0.0)))
 (let (($x7930 (<= (+ ?x769 S_4 ?x758 A_1 ?x2889 ?x960) 0.0)))
 (let (($x350221 (or $x4825 $x7930 $x8204 $x13255 $x26498 (<= (+ (* (/ 3.0 2.0) A_2) (* (- (/ 1.0 2.0)) A_0) ?x1600 ?x1982 ?x769) 0.0) (<= (+ ?x901 L_0 ?x758 ?x2036 ?x960) 0.0) $x124368)))
 (let (($x2020 (<= (+ ?x2018 ?x1969 L_4 (* (/ 1.0 2.0) S_3) ?x1331 A_0 ?x960) 0.0)))
 (let ((?x4642 (* (- (/ 1.0 2.0)) A_2)))
 (let ((?x3485 (* (/ 1.0 2.0) L_4)))
 (let ((?x4558 (* (- (/ 1.0 2.0)) A_4)))
 (let ((?x21552 (* (/ 1.0 4.0) L_0)))
 (let ((?x21534 (* (/ 3.0 4.0) A_0)))
 (let ((?x21551 (* (/ 1.0 2.0) A_3)))
 (let (($x20276 (<= (+ L_4 ?x758 S_2 ?x1331 A_0 ?x960) 0.0)))
 (let (($x901747 (or $x8204 (not $x7052) $x13786 $x20276 (<= (+ ?x21551 ?x21534 ?x21552 ?x21514 ?x1331 ?x4558 ?x3485 ?x758 ?x4642) 0.0) $x46400)))
 (let (($x33391 (<= (+ ?x3920 (* 4.0 S_4) A_0 ?x2895 ?x749 ?x2865 ?x2889 ?x1345) 0.0)))
 (let ((?x1313 (* (- 2.0) S_3)))
 (let ((?x2308 (* 2.0 S_4)))
 (let (($x7822 (<= (+ ?x769 ?x2308 ?x758 A_1 ?x1313 ?x798 L_4 A_2) 0.0)))
 (let (($x2049 (<= (+ L_4 S_3 ?x769) 0.0)))
 (let ((?x30531 (* (/ 1.0 3.0) S_4)))
 (let ((?x9158 (* (/ 2.0 3.0) A_1)))
 (let ((?x9157 (* (- (/ 2.0 3.0)) L_1)))
 (let (($x44244 (<= (+ ?x44224 (* (/ 5.0 4.0) A_0) (* (- (/ 1.0 4.0)) L_0) ?x1331 L_4 ?x758 ?x769) 0.0)))
 (let (($x22241 (<= (+ ?x5333 (* (/ 3.0 2.0) A_0) (* (- (/ 1.0 2.0)) L_0) ?x1331 L_4 ?x758 ?x960) 0.0)))
 (let ((?x8506 (* (/ 2.0 3.0) S_4)))
 (let ((?x8873 (* (/ 1.0 3.0) A_1)))
 (let ((?x7084 (* (- (/ 4.0 3.0)) L_1)))
 (let (($x9148 (<= (+ ?x7084 ?x8873 ?x8506 ?x1331 L_4 A_0 ?x769) 0.0)))
 (let (($x6262 (<= (+ S_4 A_0 ?x1331 ?x798 L_4 ?x758) 0.0)))
 (let (($x326204 (or $x6262 $x9148 $x13634 $x22241 $x44244 $x124368 (<= (+ ?x9157 ?x9158 ?x30531 ?x1331 A_0 ?x960) 0.0))))
 (let (($x30503 (<= (+ (* (- (/ 5.0 3.0)) L_1) ?x9158 ?x30531 ?x1331 L_4 A_0 ?x960) 0.0)))
 (let (($x33725 (<= (+ ?x3920 ?x2308 (* 2.0 A_0) ?x749 ?x1331 (* 3.0 L_4) ?x758 ?x960) 0.0)))
 (let (($x1744 (<= (+ A_2 ?x1625 ?x758) 0.0)))
 (let (($x1635 (<= (+ ?x1588 (* (- (/ 1.0 2.0)) L_0) (* (/ 1.0 2.0) S_3) L_1 (* (- 1.0) A_1)) 0.0)))
 (let (($x1592 (not $x1635)))
 (let (($x28805 (<= (+ ?x769 (* 3.0 S_3) L_0 ?x1331 ?x2865 ?x2889 ?x758 A_2) 0.0)))
 (let (($x1362 (<= (+ (* 2.0 A_0) ?x1324 S_0 A_4 ?x747 (* 5.0 L_1) ?x1360) 0.0)))
 (let (($x2993 (<= (+ ?x769 ?x798 L_4 A_2 (* 2.0 S_3) L_1 (* (- 1.0) A_1)) 0.0)))
 (let (($x37188 (<= (+ L_4 ?x1877 ?x2036 L_0 ?x901 ?x960) 0.0)))
 (let (($x31667 (not $x37188)))
 (let (($x61334 (<= (+ ?x3907 (* 4.0 A_0) (* (- 4.0) L_0) (* (- 6.0) S_1) ?x2897) 0.0)))
 (let (($x61289 (not $x61334)))
 (let (($x58308 (<= (+ A_3 ?x986 (* 2.0 L_0) S_1 ?x798 L_4 ?x1877 ?x2036 ?x960) 0.0)))
 (let (($x57654 (<= (+ ?x901 L_0 S_1 L_4 ?x758 A_1 ?x960) 0.0)))
 (let (($x13122 (<= (+ ?x3614 ?x1334 (* 3.0 S_1) ?x798 L_4 ?x758 A_1) 0.0)))
 (let (($x7943 (<= (+ ?x769 S_4 ?x758 A_1 ?x1625 L_4) 0.0)))
 (let (($x5343 (<= (+ A_0 S_2 ?x749 ?x1798 ?x2084) 0.0)))
 (let (($x35327 (<= (+ ?x1968 ?x1999 (* (- (/ 1.0 2.0)) S_4) S_2) 0.0)))
 (let (($x108037 (<= (+ ?x986 (* 2.0 L_0) L_4 (* 2.0 S_1) ?x758 A_1 ?x769) 0.0)))
 (let (($x7932 (<= (+ ?x769 S_4 ?x1877 A_1 ?x1331 ?x2889 A_0 ?x960) 0.0)))
 (let (($x22245 (<= (+ ?x5333 (* (/ 3.0 2.0) A_0) (* (- (/ 3.0 2.0)) L_0) ?x1798 ?x2084) 0.0)))
 (let (($x2876 (<= (+ ?x798 L_4 S_3 ?x758 A_1 L_0 ?x901) 0.0)))
 (let (($x39472 (<= (+ (* (- 1.0) A_1) (* 2.0 S_2) ?x1331 L_4 A_0 ?x769) 0.0)))
 (let (($x7719 (<= (+ A_3 ?x758 (* (- 1.0) A_1) S_2 ?x1331 ?x798 L_4 A_0) 0.0)))
 (let (($x901680 (or $x7719 $x8204 $x20276 (<= (+ ?x21551 ?x1982 ?x1999 S_2 ?x1331 ?x4558 ?x3485 A_0 ?x4642) 0.0) (<= (+ L_1 ?x2084 ?x3365 ?x1331 ?x798 L_4 A_0) 0.0) $x39472 $x124368)))
 (let ((?x1320 (* 3.0 L_4)))
 (let ((?x1641 (* 2.0 S_3)))
 (let ((?x2296 (* 2.0 L_0)))
 (let (($x70698 (<= (+ ?x986 ?x2296 ?x1641 ?x1320 ?x1321 ?x7731 ?x2919) 0.0)))
 (let (($x34013 (<= (+ (* (- (/ 2.0 3.0)) A_0) (* (/ 2.0 3.0) L_0) ?x33006 ?x2889 ?x1877 ?x2036 ?x1363) 0.0)))
 (let ((?x21521 (* (- (/ 3.0 2.0)) L_4)))
 (let ((?x21507 (* (/ 3.0 2.0) A_4)))
 (let (($x60624 (<= (+ ?x21526 ?x2480 (* (/ 3.0 2.0) S_1) ?x21507 ?x21521 ?x4163) 0.0)))
 (let ((?x2301 (* (- 2.0) S_4)))
 (let (($x28168 (<= (+ ?x2301 (* (- 4.0) A_0) (* 4.0 L_0) (* 6.0 S_1)) 0.0)))
 (let ((?x28474 (+ (* (- 6.0) A_3) ?x3614 (* 9.0 S_3) ?x1334 (* (- 6.0) A_4) (* 6.0 L_4) (* 6.0 A_2))))
 (let (($x3089 (<= (+ A_3 (* (- 1.0) S_4) ?x747) 0.0)))
 (let (($x901050 (or $x3089 $x13122 $x57654 $x108037 (not (<= (+ ?x8506 (* (/ 1.0 3.0) A_0) ?x21806 L_1 ?x960) 0.0)) $x124368)))
 (let (($x121251 (<= (+ ?x8506 (* (/ 1.0 3.0) A_0) ?x21806 L_1 ?x960) 0.0)))
 (let (($x3595 (<= (+ A_2 ?x986 ?x2296 S_1 ?x798 L_4 ?x1877 A_1) 0.0)))
 (let (($x1960 (<= (+ ?x758 A_1 (* (- 1.0) S_2)) 0.0)))
 (let (($x121261 (<= (+ (* (- (/ 2.0 3.0)) S_4) (* (- (/ 4.0 3.0)) A_0) ?x21961 S_0 L_1 ?x747 A_2) 0.0)))
 (let (($x61672 (<= (+ (* (- 1.0) S_4) A_0 ?x749 ?x1238 ?x1231 (* (- 3.0) A_1) ?x2247) 0.0)))
 (let ((?x5609 (* 2.0 S_0)))
 (let ((?x1621 (* (- 1.0) S_4)))
 (let ((?x763 (* (- 1.0) A_1)))
 (let (($x36099 (<= (+ ?x1231 ?x763 ?x1621 ?x2897 ?x5609 ?x986 ?x1345) 0.0)))
 (let (($x1802 (<= (+ ?x960 ?x747 A_0 ?x749 ?x1798 ?x763 A_3) 0.0)))
 (let (($x21817 (<= (+ ?x769 S_4 ?x1588 (* (- (/ 1.0 2.0)) S_3) (* (- (/ 1.0 2.0)) L_0) L_1) 0.0)))
 (let (($x7099 (<= (+ ?x769 S_4 A_1 ?x1625) 0.0)))
 (let ((?x2396 (* (- 3.0) S_2)))
 (let ((?x1815 (* (- 2.0) L_0)))
 (let ((?x1316 (* 2.0 A_0)))
 (let (($x33143 (<= (+ ?x769 ?x2308 ?x1316 ?x1815 ?x2396 ?x798 L_4 A_2) 0.0)))
 (let (($x22675 (<= (+ A_3 (* (- 1.0) S_2) ?x798 L_4 ?x1877 A_2) 0.0)))
 (let (($x881720 (or $x1960 (not (<= (+ A_2 ?x901 L_0 ?x758 A_1 ?x769) 0.0)) $x3517 $x3595 $x13122 $x61289)))
 (let (($x886544 (or (not (<= (+ A_2 A_0 ?x749 ?x1331 ?x763) 0.0)) $x1960 $x3517 $x3595 $x4825 $x13122 $x61289 $x124368)))
 (let (($x4835 (<= (+ A_2 A_0 (* (- 2.0) S_2) ?x749 ?x758) 0.0)))
 (let (($x880121 (or (<= (+ A_2 ?x901 L_0 S_1 ?x769) 0.0) $x1960 $x4825 $x13122 $x57654 $x58308 $x124368)))
 (let (($x21487 (<= (+ ?x21526 ?x2480 ?x21534 (* (- (/ 3.0 4.0)) L_0) ?x21514 ?x21507 ?x21521 ?x4163) 0.0)))
 (let (($x13809 (<= (+ ?x1301 ?x986 ?x2296 (* 6.0 S_2)) 0.0)))
 (let (($x1777 (<= (+ A_2 ?x1621 ?x901 L_0 S_1 ?x758) 0.0)))
 (let (($x34744 (<= (+ (* (/ 2.0 3.0) A_0) (* (- (/ 2.0 3.0)) L_0) (* (/ 1.0 3.0) S_3) L_1 ?x763) 0.0)))
 (let ((?x1622 (* (- 1.0) S_2)))
 (let ((?x4304 (* (- (/ 1.0 2.0)) L_4)))
 (let ((?x4873 (* (/ 1.0 2.0) A_4)))
 (let (($x4878 (<= (+ ?x4642 ?x4873 ?x4304 A_0 ?x1622 ?x749 ?x1968) 0.0)))
 (let (($x2570 (<= (+ A_4 ?x747 ?x1809 (* (- 4.0) S_2) ?x1324) 0.0)))
 (let (($x871838 (or $x2570 $x4825 $x4835 $x13255 $x26498 (<= (+ ?x3920 ?x2308 A_0 ?x749 ?x1320 ?x960) 0.0) $x106551)))
 (let (($x42610 (<= (+ (* (/ 1.0 3.0) A_0) ?x21806 ?x33006 L_1 ?x960) 0.0)))
 (let (($x12785 (<= (+ ?x1809 ?x1324 ?x1734 ?x2897 (* 5.0 L_1) ?x2084 (* (- 3.0) A_2)) 0.0)))
 (let ((?x57455 (* (/ 5.0 2.0) L_1)))
 (let ((?x1657 (* (- (/ 3.0 2.0)) L_0)))
 (let ((?x21548 (* (/ 3.0 2.0) A_0)))
 (let (($x898061 (or $x2876 $x3517 $x4878 (<= (+ A_2 A_4 ?x747 ?x1313 ?x758) 0.0) (<= (+ ?x4163 A_4 ?x747 ?x21548 ?x1657 ?x57455 ?x763) 0.0) $x124368)))
 (let (($x870056 (or $x1960 $x2876 $x34013 $x70698 (not (<= (+ A_0 ?x749 ?x1641 ?x1231 (* (- 3.0) A_2)) 0.0)) $x124368)))
 (let (($x13443 (not (<= (+ ?x3907 A_0 ?x749 ?x2396 ?x2897) 0.0))))
 (let (($x38700 (<= (+ ?x1877 ?x2036 ?x1625 L_0 ?x901) 0.0)))
 (let ((?x1575 (* (- (/ 1.0 2.0)) L_0)))
 (let ((?x1576 (* (- (/ 1.0 2.0)) S_3)))
 (let ((?x1620 (* (- (/ 1.0 2.0)) A_0)))
 (let (($x21792 (<= (+ ?x769 ?x1620 ?x1576 ?x1575 S_0 ?x1798 ?x747 A_4) 0.0)))
 (let (($x3609 (<= (+ A_0 ?x749 A_4 ?x747 ?x1798 ?x763 ?x769) 0.0)))
 (let (($x29358 (<= (+ ?x769 L_1 A_1 ?x1625 S_0 A_4 ?x747 ?x901) 0.0)))
 (let (($x17234 (<= (+ ?x769 L_1 A_1 ?x1313 ?x5609 A_4 ?x747 ?x986 A_2) 0.0)))
 (let (($x62350 (<= (+ (* (- (/ 2.0 3.0)) S_4) ?x21960 ?x21961 S_2) 0.0)))
 (let (($x33828 (<= (+ ?x3920 ?x2308 ?x1316 ?x1815 (* (- 2.0) S_2) ?x2889) 0.0)))
 (let (($x108056 (<= (+ A_0 ?x749 ?x747 ?x1625 L_1 ?x763 A_3) 0.0)))
 (let (($x28042 (<= (+ ?x1620 ?x1575 (* (- (/ 3.0 2.0)) S_3) S_0 L_1 ?x747 A_3) 0.0)))
 (let (($x9559 (<= (+ A_1 ?x1313 S_0 ?x747 ?x901 A_3) 0.0)))
 (let (($x9172 (<= (+ (* (- (/ 8.0 3.0)) L_1) (* (/ 8.0 3.0) A_1) (* (- (/ 2.0 3.0)) S_4) ?x2296 ?x986) 0.0)))
 (let (($x862822 (or (not $x9172) $x7822 (not (<= (+ ?x769 L_1 A_1 A_4 ?x747 ?x960) 0.0)) (<= (+ ?x769 ?x758 A_1 L_4 ?x960 A_4) 0.0) $x8204)))
 (let (($x21160 (<= (+ ?x3920 ?x3614 ?x2895 ?x749 (* 4.0 S_0) ?x1734 ?x2897 ?x2596 ?x1345) 0.0)))
 (let (($x863722 (or (<= (+ ?x1982 ?x1969 ?x1576 ?x960 A_3) 0.0) $x7042 (<= (+ ?x960 ?x1641 ?x1331 ?x798 L_4 A_0) 0.0) $x8204 $x42610 $x124368)))
 (let (($x2537 (<= (+ A_4 ?x747 ?x1809 ?x2396 ?x1324 L_1 ?x763) 0.0)))
 (let (($x377287 (or $x690 (not $x1362) (<= (+ ?x1316 ?x1324 (* (- 4.0) S_2) S_0 A_4 ?x747 L_1) 0.0) $x2537)))
 (let (($x126138 (<= (+ ?x1621 A_0 ?x749 (* (/ 3.0 2.0) L_1) ?x21521 (* (- (/ 3.0 2.0)) A_1) ?x21526) 0.0)))
 (let (($x3596 (<= (+ ?x1621 ?x747 ?x901 S_0 L_1 A_3) 0.0)))
 (let (($x31037 (<= (+ ?x2919 (* 6.0 S_3) ?x2396 (* (- 3.0) A_4) ?x1320 ?x2247) 0.0)))
 (let (($x58367 (<= (+ ?x769 ?x1809 ?x1815 ?x1331 A_4 ?x747 ?x1798 (* (- 3.0) A_1) A_2) 0.0)))
 (let (($x908972 (or $x690 $x1960 (<= (+ A_0 ?x1815 ?x2396 S_0 L_1 ?x747 A_3) 0.0) (not (<= (+ ?x901 ?x1622 S_0 A_1) 0.0)))))
 (let (($x28142 (<= (+ ?x901 ?x1622 S_0 A_1) 0.0)))
 (let (($x905347 (or $x690 $x1960 $x28142 (<= (+ ?x1316 ?x1815 ?x747 (* (- 2.0) S_2) L_1 ?x763 A_3) 0.0))))
 (let (($x3875 (<= (+ ?x960 A_0 (* (- 2.0) S_2) ?x1815 S_0 A_4 ?x747 ?x1798) 0.0)))
 (let (($x281470 (or $x690 $x1960 $x3875 (<= (+ ?x960 ?x1316 ?x1622 ?x1815 A_4 ?x747 ?x1798 ?x763) 0.0))))
 (let (($x281434 (or $x690 $x1802 $x1960 (<= (+ ?x960 ?x747 ?x1622 ?x749 S_0 ?x1798 A_3) 0.0))))
 (let (($x277229 (or $x690 $x3081 (<= (+ L_1 ?x1625 S_0 ?x747 ?x901 A_2) 0.0) (<= (+ A_0 ?x1625 ?x749 ?x2897 ?x1798 ?x2084 ?x1345) 0.0))))
 (let (($x21152 (not (<= (+ A_3 ?x3614 ?x2296 S_0 ?x798 L_4 ?x1877 ?x7731 ?x960) 0.0))))
 (let (($x903894 (or $x690 $x1960 (<= (+ ?x769 ?x1815 ?x2396 ?x5609 A_4 ?x747 ?x1798 A_2) 0.0) $x21152)))
 (let (($x402075 (or $x690 $x1960 $x28142 (<= (+ ?x769 ?x1316 ?x1815 ?x1622 A_4 ?x747 ?x1798 ?x2084 A_2) 0.0))))
 (let (($x885511 (or $x690 $x1960 (<= (+ ?x749 (* (- 2.0) S_2) S_0 ?x747 L_1 A_2) 0.0) (<= (+ A_0 ?x749 ?x1622 ?x747 L_1 ?x763 A_2) 0.0))))
 (let (($x8860 (<= (+ ?x7084 (* (/ 4.0 3.0) A_1) ?x8506 ?x1313) 0.0)))
 (let (($x1586 (<= (+ S_4 A_0 ?x749 ?x1313) 0.0)))
 (let (($x268260 (or $x690 $x1960 $x3609 (<= (+ ?x769 ?x1622 ?x749 S_0 A_4 ?x747 ?x1798) 0.0))))
 (and (<= ?x758 ?x749) (<= ?x747 ?x758) (or (<= (+ ?x1620 ?x1600 ?x1576 S_1) 0.0) $x2679) (or (<= (+ ?x1620 ?x1600 ?x1576 S_1) 0.0) $x3081) (or (<= (+ ?x1620 ?x1600 ?x1576 S_1) 0.0) $x1744 $x3089) (or (<= (+ ?x1620 ?x1600 ?x1576 S_1) 0.0) $x1744 $x1960) (or $x1960 (<= (+ ?x4642 ?x5333 A_0 ?x1622 ?x749 ?x1968) 0.0)) (or $x1960 (<= (+ ?x769 S_4 A_0 ?x1622 ?x749 L_1) 0.0)) (or $x690 $x1802 $x3089 $x3596) (or $x1586 $x3081 $x8860) (or $x1960 (<= (+ S_4 ?x1809 ?x1324 (* (- 4.0) S_2)) 0.0)) (or $x1586 $x1744 $x8204 $x8860) $x268260 (or $x690 $x3081 $x3609 $x21792 $x29358) (or $x2679 $x2876 (not $x3081)) (or $x1586 $x2679 $x8860) (or $x1586 $x1744 $x1960) (or $x1960 (<= (+ ?x1316 ?x1815 S_3 ?x2396) 0.0)) (or $x1960 (<= (+ ?x960 S_3 A_0 ?x1622 ?x749 L_1) 0.0)) (or $x690 $x1362 $x1960 $x2537) (or $x2679 $x2993 (not $x3081)) $x885511 $x402075 $x903894 $x277229 (or $x3089 (<= (+ ?x1621 ?x1620 ?x1600 ?x8321) 0.0)) $x281434 (or $x1635 $x1744 $x3089 $x8860) $x281470 (or $x1777 $x3089 $x28168) $x905347 $x908972 (or $x1586 $x1592 $x1744 $x3089) (or (<= (+ A_3 ?x1621 ?x960 S_2) 0.0) $x8204 $x35327) (or (<= (+ A_3 ?x1621 ?x960 S_2) 0.0) $x8204 $x62350) (or $x690 $x1744 $x8204 $x17234 $x21160 $x58367) (or $x690 $x2679 $x17234 $x21160 $x58355) (or $x1960 $x2049 $x31037) (or $x2049 $x2876 $x3081) (or $x1960 $x33143 $x33828) (or $x3089 $x35327) (or $x690 $x3081 $x17234 $x21160 $x58355) (or $x690 $x3089 $x3596 $x126138) (or $x690 $x1960 $x21160 $x58355) (or $x1744 $x7099 $x8204 $x21817) (or $x690 $x1744 $x1960 $x28042 $x108056) $x377287 (or $x1960 $x2049 $x2876) (or $x690 $x1744 $x8204 $x9559 $x28042 $x108056) (or $x3089 $x3202 $x13129 $x21860 $x124368) (or $x1960 $x4495 $x13129 $x13443 $x21579 $x22243) (or $x1960 $x3517 $x4819 $x13129 $x22243 $x106551 $x124368) (or $x3081 $x7099 $x21817) (or $x1960 $x4495 $x4878 $x62350) (or $x1960 $x4495 $x21487 $x62350) $x863722 (or $x690 $x1744 $x8204 $x21160 $x38700 $x58355) (or $x2679 $x4495 $x7806 $x13809 $x21487) (or $x690 $x1744 $x3609 $x8204 $x21792 $x29358) $x862822 (or $x1960 $x4825 $x13129 $x13443 $x22235 $x124368) (or $x1960 $x4825 $x7930 $x13255 $x26498 $x44265 $x124368) (or $x2049 $x2679 $x4825 $x13122 $x58308) (or $x690 $x1315 $x1744 $x1960 $x13082) (or $x690 $x1744 $x1960 $x3609 $x21792) (or $x1960 $x4819 $x13255 $x22243 $x44265 $x124368) (or $x690 $x3081 $x9559 $x28042 $x108056) (or $x690 $x1744 $x3089 $x9559 $x28042 $x108056) (or $x1744 $x1960 $x33391 $x33828) (or $x1744 $x1960 $x21817) (or $x4495 $x7806 $x8204 $x21487 $x62350) (or $x1960 $x4819 $x4835 $x13255 $x22243 $x106551 $x124368) (or $x1633 $x2679 (not $x17234) $x21792 $x29358) (or $x690 $x751 $x2679 $x4495 $x7806 $x21131 $x43278 $x58355) (or $x690 $x751 $x2679 $x3599 $x4495 $x21131 $x38700) (or $x2679 $x4495 $x28168 $x60624) (or $x2570 $x3517 $x3595 $x4819 $x13122 $x57654 $x108037 $x124368) (or $x1960 $x4819 $x4835 $x13122 $x57654 $x108037 $x124368) (or $x1960 $x3517 $x3595 $x4819 $x13122 $x57654 $x108037 $x124368) (or $x690 $x2679 $x3609 $x21792 $x38700) (or $x1960 $x2876 $x4835 $x34013 $x70698 $x124368) (or $x2049 $x2993 $x8204) (or $x1960 $x4819 $x13129 $x34013 $x44265 $x124368) (or $x1960 $x4825 $x13129 $x13443 $x21579 $x22243 $x124368) (or $x1960 $x4825 $x13129 $x21579 $x21964 $x34013 $x124368) $x870056 $x898061 (or $x1960 $x3517 (not $x12785) $x42610 $x124368) $x871838 (or $x3503 $x3517 $x4825 $x4878 $x13255 $x106551 $x124368) (or $x2876 $x3089 $x3517 $x34013 $x70698 $x124368) (or $x2020 $x7042 $x8204 $x34744 $x37509 $x124368) (or $x1960 $x2876 $x3517 $x34013 $x70698 $x124368) (or $x1777 $x1960 $x4495 $x28168 $x60624) (or $x1592 $x3081 $x33391 (<= (+ ?x3920 ?x2308 A_0 ?x1625 ?x749 ?x2889) 0.0)) (or $x3081 $x4495 $x7806 $x13809 $x21487) (or $x751 $x1633 $x3089 $x3599 $x3905 $x35695) (or $x3081 $x3202 $x4819 $x13129 $x21860 $x124368) (or $x1960 $x4835 $x13255 $x22243 $x22675 $x26498 $x106551 $x124368) $x880121 (or $x1960 $x3503 $x3517 $x13255 $x22243 $x22675 $x26498 $x106551 $x124368) (or $x1960 $x3503 $x3517 $x4825 $x13255 $x22235 $x106551 $x124368) (or $x1960 $x4825 $x4835 $x13122 $x57654 $x58308 $x61289 $x124368) $x886544 $x881720 (or $x1960 $x3517 $x3595 $x13122 $x22675 $x32959 $x57654 $x61289 $x124368) (or $x2049 $x2679 $x7822 $x33143) (or $x2679 $x7099 $x21817) (or $x690 $x1802 $x3089 $x36099) (or $x690 $x3089 $x31667 $x36099) (or $x690 $x3089 $x61672 $x121261) (or $x1635 $x3081 $x7822 $x7943) (or $x2679 $x4495 $x5343 $x7806 $x35327) (or $x751 $x1633 $x1960 $x3599 $x3905 $x4495 $x21131) (or $x4495 $x5343 $x7806 $x8204 $x35327) (or $x3517 $x6262 $x7932 $x9148 $x22245 $x124368) (or $x690 $x1315 $x1744 $x8204 $x13082 $x37431) (or $x1635 $x7145 $x7822 $x7943 $x8204) (or $x2049 $x2679 $x4825 $x13129 $x21579) (or $x690 $x1315 $x1744 $x3089 $x13082 $x37431) (or $x751 $x1633 $x3089 $x3599 $x3905 $x43278) (or $x3089 $x3517 $x3595 $x13122 $x108037 $x121251 $x124368) $x901050 (or $x2049 $x2679 (<= ?x28474 0.0)) (or $x6262 $x7932 $x33725 $x44265 $x124368) (or $x3081 $x4825 $x7930 $x13255 $x26498 $x124368) (or $x3081 $x4495 $x28168 $x60624) (or $x2049 $x2679 $x4825 $x13255 $x26498) (or $x3202 $x4819 $x8204 $x13129 $x20276 $x124368) (or $x2876 $x3517 $x8204 $x34013 $x70698 $x124368) $x901680 (or $x8204 $x13786 $x20276 (not $x39472) $x46400 $x124368) (or $x2049 $x2876 $x8204) (or $x6262 $x9148 $x13634 $x22245 $x30503 $x124368) (or $x6262 $x7932 $x9148 $x13634 $x22241 $x44244 $x124368) (or $x2049 $x8204 $x37509) (or $x3081 $x4819 $x13122 $x57654 $x108037 $x124368) (or $x3081 $x4819 $x13255 $x22243 $x106551 $x124368) (or $x3081 $x4495 $x5343 $x7806 $x35327) (or $x690 $x751 $x3081 $x3599 $x4495 $x21131 $x37188) (or $x2679 $x5343 $x7822 $x7943) (or $x3081 $x4825 $x13122 $x57654 $x58308 $x61289 $x124368) (or $x690 $x1315 $x3081 $x13082 $x37431) (or $x690 $x1362 $x3081 $x4495 $x7806 $x31667 $x43278) (or $x2049 $x2993 $x3081) (or $x1362 $x1633 $x3905 $x4495 $x7806 $x8204 $x43278) (or $x2049 $x8204 $x28805) (or $x1592 $x1744 $x8204 $x33391 $x33725 $x124368) (or $x3517 $x6262 $x9148 $x22241 $x30503 $x44244 $x124368) $x326204 (or $x2049 $x2679 $x7822 $x33391) (or $x4825 $x8204 $x13129 $x20276 $x21579 $x46400 $x124368) $x901747 (or $x4825 $x8204 $x13129 $x21579 $x21860 $x46400 $x124368) (or $x2020 $x7042 $x8204 $x30463 $x37509 $x124368) $x350221 (or $x7145 $x7930 $x8204 $x13255 $x26498 $x44265) (or $x3503 $x3517 $x4819 $x8204 $x13255 $x22243 $x106551 $x124368) (or $x3503 $x3517 $x7145 $x8204 $x13255 $x22243 $x32959 $x106551 $x124368) (or $x3202 $x4819 $x8204 $x13129 $x21860 $x124368) (or $x3503 $x4825 $x8204 $x13255 $x13634 $x22235 $x106551 $x124368) (or $x751 $x1633 $x3599 $x3905 $x4495 $x7806 $x8204 $x21131 $x35695) $x893581 (or $x7042 $x8204 $x30463 $x33923 (not $x37509) $x124368) (or $x3081 $x4825 $x13129 $x21579 $x21860 $x21964 $x124368) (or $x690 $x1315 $x2679 $x13082 $x37431) (or $x690 $x751 $x3081 $x4495 $x7806 $x21131 $x43278 $x58355) (<= (+ ?x901 L_0 S_0) 0.0) (<= (+ ?x1331 S_0) 0.0) (<= (+ ?x1625 S_2) 0.0) (<= (+ S_1 L_1 ?x763) 0.0) (<= (+ ?x960 S_2 L_1) 0.0) (<= (+ ?x1622 S_1) 0.0) (<= (+ S_4 ?x798 L_4) 0.0) (<= (+ ?x1621 S_3) 0.0) (<= (+ ?x769 S_3 L_1) 0.0))))))))))))))))))))))))))))))))))))))))))))))))))))))))))))))))))))))))))))))))))))))))))))))))))))))))))))))))))))))))))))))))))))))))))))))))))))))))))))))))))))))))))))))))))))))))))))))))))))))))))))))))))))))))))))))))))))))))))))))))))))))))))))))
(check-sat)
